p cnf 566 2000
c t mc
3 1 0
3 2 0
1 2 3 0
4 1 -5 0
4 1 -5 0
4 -1 5 0
-4 1 5 0
6 3 0
6 5 0
3 5 6 0
9 7 0
9 8 0
7 -8 9 0
10 11 -12 0
10 11 -12 0
10 -11 12 0
-10 11 12 0
13 9 0
13 12 0
9 12 13 0
6 13 14 0
6 13 14 0
6 13 14 0
6 13 14 0
1 15 0
1 15 0
2 16 -17 0
2 16 -17 0
2 -16 17 0
-2 16 17 0
18 16 0
16 17 18 0
19 12 0
19 18 0
12 18 19 0
19 3 20 0
19 3 20 0
19 3 20 0
19 3 20 0
20 6 -21 0
20 6 -21 0
-20 6 21 0
20 -6 21 0
22 21 0
15 21 22 0
22 23 -24 0
22 23 -24 0
22 -23 24 0
-22 23 24 0
25 14 0
25 24 0
14 24 25 0
26 12 0
26 4 0
12 4 26 0
27 19 0
27 26 0
19 26 27 0
29 1 0
29 28 0
-1 28 29 0
30 5 0
30 29 0
5 29 -30 0
31 27 0
31 30 0
27 30 31 0
35 17 0
35 34 0
17 34 35 0
36 33 0
1 33 -36 0
35 36 37 0
35 36 37 0
35 36 37 0
35 36 37 0
38 10 0
38 12 0
10 12 38 0
39 37 0
39 38 0
37 38 -39 0
40 33 0
40 39 0
33 39 -40 0
41 32 0
41 40 0
32 -40 41 0
42 23 0
42 17 0
-23 17 42 0
1 42 -43 0
1 42 -43 0
1 -42 43 0
-1 42 43 0
44 41 0
44 43 0
41 43 44 0
45 23 0
45 5 0
23 -5 45 0
46 12 47 0
46 12 47 0
46 12 47 0
19 47 -48 0
19 47 -48 0
-19 47 48 0
19 -47 48 0
45 48 49 0
45 48 49 0
45 48 49 0
45 48 49 0
50 36 0
50 4 0
36 4 50 0
49 50 -51 0
49 50 -51 0
49 -50 51 0
-49 50 51 0
51 46 52 0
51 46 52 0
51 46 52 0
51 46 52 0
53 44 0
53 52 0
44 52 -53 0
54 13 0
12 13 54 0
55 53 0
55 54 0
53 54 -55 0
56 31 0
56 55 0
-31 55 56 0
57 25 0
57 56 0
25 56 57 0
58 34 0
58 47 0
34 47 58 0
59 58 0
59 23 0
58 23 -59 0
61 60 0
61 18 0
60 18 -61 0
8 4 62 0
8 4 62 0
8 4 62 0
8 4 62 0
63 46 0
63 10 0
46 10 63 0
64 63 0
64 18 0
63 18 -64 0
65 62 0
-62 64 65 0
61 65 -66 0
61 65 -66 0
-61 65 66 0
61 -65 66 0
67 30 0
67 15 0
30 -15 67 0
68 66 0
68 67 0
66 67 -68 0
69 40 0
69 68 0
40 68 -69 0
70 12 71 0
70 12 71 0
70 12 71 0
70 12 71 0
71 3 -72 0
71 3 -72 0
-71 3 72 0
71 -3 72 0
7 72 -73 0
7 72 -73 0
7 -72 73 0
-7 -72 73 0
74 73 0
74 30 0
-73 30 74 0
75 45 0
-45 74 75 0
69 75 76 0
69 75 76 0
69 75 76 0
69 75 76 0
60 1 -77 0
60 1 -77 0
-60 1 77 0
60 -1 77 0
2 21 78 0
2 21 78 0
2 21 78 0
2 21 78 0
54 67 79 0
54 67 79 0
54 67 79 0
54 67 79 0
78 79 80 0
78 79 80 0
78 79 80 0
78 79 80 0
81 77 0
81 80 0
77 80 81 0
82 76 0
82 81 0
76 81 82 0
59 82 83 0
59 82 83 0
59 82 83 0
84 57 0
84 83 0
57 83 -84 0
85 62 0
85 17 0
62 -17 85 0
86 85 0
86 54 0
85 54 86 0
87 27 0
87 86 0
27 86 87 0
88 35 0
88 17 0
-35 17 88 0
89 87 0
89 88 0
87 88 -89 0
90 12 0
90 72 0
-12 72 90 0
91 11 0
91 90 0
11 90 -91 0
92 89 0
92 91 0
93 73 0
93 6 0
-73 6 93 0
94 93 0
94 10 0
93 10 94 0
95 15 0
95 94 0
15 94 95 0
9 95 -96 0
9 95 -96 0
-9 95 96 0
9 -95 96 0
92 96 97 0
92 96 97 0
92 96 97 0
92 96 97 0
60 32 -98 0
60 32 -98 0
60 -32 98 0
-60 32 98 0
21 98 99 0
21 98 99 0
21 98 99 0
21 98 99 0
19 42 100 0
19 42 100 0
19 42 100 0
101 100 0
101 48 0
100 48 -101 0
101 10 -102 0
101 10 -102 0
101 -10 102 0
-101 10 102 0
66 102 103 0
66 102 103 0
66 102 103 0
66 102 103 0
104 99 0
104 103 0
99 103 104 0
17 3 -105 0
17 3 -105 0
17 3 105 0
-17 3 105 0
106 105 0
106 73 0
105 73 106 0
39 106 107 0
39 106 107 0
39 106 107 0
73 107 108 0
73 107 108 0
73 107 108 0
73 107 108 0
109 19 0
109 1 0
19 1 -109 0
110 13 0
110 109 0
13 109 110 0
111 110 0
111 41 0
110 -41 111 0
18 15 112 0
18 15 112 0
18 15 112 0
18 15 112 0
103 112 -113 0
103 112 -113 0
-103 112 113 0
103 -112 113 0
39 113 114 0
39 113 114 0
39 113 114 0
115 111 0
115 114 0
111 114 115 0
116 108 0
116 115 0
108 115 116 0
117 104 0
117 116 0
-104 116 117 0
118 97 0
118 117 0
97 117 118 0
119 68 0
119 23 0
-68 23 119 0
120 77 0
120 109 0
77 109 120 0
23 112 121 0
23 112 121 0
23 112 121 0
23 112 121 0
122 38 0
122 121 0
123 3 0
123 122 0
3 122 -123 0
124 123 0
124 30 0
123 30 -124 0
3 36 125 0
3 36 125 0
3 36 125 0
3 36 125 0
125 112 126 0
125 112 126 0
125 112 126 0
125 112 126 0
124 126 127 0
124 126 127 0
124 126 127 0
124 126 127 0
127 123 -128 0
127 123 -128 0
-127 123 128 0
127 -123 128 0
129 7 0
129 16 0
7 16 129 0
128 129 130 0
128 129 130 0
128 129 130 0
128 129 130 0
120 130 -131 0
120 -130 131 0
-120 130 131 0
132 119 0
132 131 0
119 131 132 0
133 129 0
133 85 0
129 85 133 0
61 133 134 0
61 133 134 0
61 133 134 0
61 133 134 0
135 101 0
135 134 0
101 134 135 0
136 30 0
136 73 0
30 73 136 0
137 135 0
137 136 0
135 136 137 0
138 132 0
138 137 0
132 137 138 0
139 73 0
73 95 139 0
139 13 -140 0
139 13 -140 0
139 -13 140 0
-139 13 140 0
141 90 0
141 32 0
90 32 -141 0
140 141 142 0
140 141 142 0
140 141 142 0
140 141 142 0
143 72 0
143 65 0
72 65 143 0
144 98 0
144 143 0
98 143 144 0
145 122 0
145 79 0
-122 79 145 0
146 14 0
146 145 0
-14 145 146 0
147 146 0
147 52 0
-146 52 147 0
148 139 0
148 147 0
-139 147 148 0
149 87 0
87 148 -149 0
150 144 0
150 149 0
144 149 -150 0
151 142 0
151 150 0
142 150 -151 0
152 47 0
152 12 0
-47 12 152 0
153 3 0
153 60 0
-3 60 153 0
6 153 -154 0
6 153 -154 0
-6 153 154 0
6 -153 154 0
155 152 0
155 154 0
152 154 155 0
156 70 0
156 17 0
70 17 156 0
157 156 0
157 16 0
156 16 -157 0
158 155 0
158 157 0
155 -157 158 0
151 158 159 0
151 158 159 0
151 158 159 0
151 158 159 0
19 146 160 0
19 146 160 0
19 146 160 0
19 146 160 0
48 160 -161 0
48 160 -161 0
-48 160 161 0
48 160 161 0
153 123 162 0
153 123 162 0
153 123 162 0
163 161 0
163 162 0
161 162 163 0
164 13 0
164 2 0
13 2 164 0
20 164 -165 0
20 164 -165 0
20 -164 165 0
-20 164 165 0
163 165 -166 0
163 165 -166 0
163 165 166 0
163 -165 166 0
159 166 -167 0
159 166 -167 0
159 166 167 0
159 -166 167 0
47 134 -168 0
47 134 -168 0
47 -134 168 0
-47 134 168 0
169 74 0
169 168 0
74 168 169 0
167 169 170 0
167 169 170 0
167 169 170 0
167 169 170 0
171 138 0
171 170 0
138 170 -171 0
172 118 0
172 171 0
173 102 0
173 86 0
102 86 173 0
174 20 0
174 173 0
-20 173 174 0
175 43 0
175 38 0
43 38 -175 0
176 175 0
176 143 0
175 -143 176 0
177 176 0
177 111 0
176 111 -177 0
12 14 -178 0
12 14 -178 0
-12 14 178 0
12 14 178 0
15 178 -179 0
15 178 -179 0
15 178 179 0
15 -178 179 0
180 12 0
180 8 0
12 -8 180 0
181 179 0
181 180 0
179 180 181 0
177 181 182 0
177 181 182 0
177 181 182 0
177 181 182 0
183 174 0
183 182 0
174 182 -183 0
184 23 0
184 70 0
23 70 184 0
185 184 0
185 42 0
184 42 -185 0
186 106 0
186 125 0
106 125 -186 0
187 186 0
-186 100 187 0
188 187 0
188 129 0
-187 129 188 0
189 185 0
189 188 0
185 188 189 0
190 183 0
190 189 0
183 -189 190 0
191 8 0
191 26 0
8 -26 191 0
192 93 0
192 133 0
93 133 192 0
193 191 0
193 192 0
191 192 193 0
194 8 0
194 72 0
8 72 -194 0
195 99 0
195 194 0
99 -194 195 0
193 195 -196 0
193 195 -196 0
-193 195 196 0
193 -195 196 0
197 86 0
94 86 -197 0
199 178 0
199 152 0
178 152 199 0
200 58 0
200 67 0
58 67 -200 0
199 200 -201 0
199 200 -201 0
-199 200 201 0
199 -200 201 0
202 201 0
202 122 0
201 122 202 0
198 202 203 0
198 202 203 0
198 202 203 0
198 202 203 0
141 203 -204 0
141 203 -204 0
141 -203 204 0
-141 203 204 0
205 29 0
205 54 0
29 54 205 0
206 106 0
206 205 0
106 205 206 0
207 204 0
207 206 0
204 206 207 0
208 197 0
208 207 0
197 207 208 0
209 105 0
209 143 0
105 143 209 0
208 209 -210 0
208 209 -210 0
-208 209 210 0
211 196 0
211 210 0
196 210 211 0
190 211 -212 0
190 211 -212 0
190 -211 212 0
-190 211 212 0
88 13 -213 0
88 13 -213 0
-88 13 213 0
88 -13 213 0
121 213 -214 0
121 213 -214 0
121 213 214 0
121 -213 214 0
6 85 215 0
6 85 215 0
6 85 215 0
6 85 215 0
216 5 0
216 215 0
5 -215 216 0
217 214 0
217 216 0
214 -216 217 0
100 217 -218 0
100 217 -218 0
100 -217 218 0
-100 217 218 0
219 90 0
219 218 0
-90 218 219 0
220 219 0
220 129 0
-219 129 220 0
35 14 -221 0
35 14 -221 0
35 -14 221 0
-35 14 221 0
222 27 0
222 1 0
223 73 0
223 222 0
73 222 223 0
221 223 224 0
221 223 224 0
221 223 224 0
221 223 224 0
225 220 0
225 224 0
220 224 -225 0
226 1 227 0
226 1 227 0
226 1 227 0
226 1 227 0
228 227 0
228 127 0
227 127 -228 0
122 146 229 0
122 146 229 0
122 146 229 0
122 146 229 0
230 200 0
230 18 0
200 18 -230 0
47 230 231 0
47 230 231 0
47 230 231 0
47 230 231 0
232 229 0
232 231 0
-229 231 232 0
233 8 0
233 18 0
8 18 233 0
234 88 0
234 233 0
-88 233 234 0
235 232 0
235 234 0
232 234 235 0
236 19 0
236 184 0
19 184 -236 0
237 236 0
235 236 -237 0
238 35 0
238 200 0
35 200 -238 0
239 186 0
239 223 0
186 223 -239 0
238 239 240 0
238 239 240 0
238 239 240 0
238 239 240 0
241 112 0
241 180 0
112 180 241 0
242 241 0
242 230 0
241 230 -242 0
243 168 0
243 242 0
168 242 243 0
244 105 0
244 70 0
105 70 -244 0
245 244 0
245 199 0
244 199 245 0
246 245 0
246 72 0
-245 72 246 0
243 246 247 0
243 246 247 0
243 246 247 0
243 246 247 0
248 240 0
248 247 0
240 247 248 0
22 58 249 0
22 58 249 0
22 58 249 0
22 58 249 0
249 207 -250 0
-249 207 250 0
249 -207 250 0
251 248 0
251 250 0
-248 250 251 0
252 237 0
252 251 0
237 251 252 0
253 228 0
253 252 0
228 252 -253 0
225 253 254 0
225 253 254 0
225 253 254 0
225 253 254 0
255 105 0
255 102 0
105 102 255 0
256 125 0
256 42 0
125 42 256 0
257 256 0
257 20 0
256 20 257 0
62 257 -258 0
62 257 -258 0
-62 257 258 0
62 -257 258 0
259 255 0
259 258 0
-255 258 259 0
259 5 260 0
259 5 260 0
259 5 260 0
259 5 260 0
261 122 0
261 79 0
-122 79 261 0
262 261 0
262 37 0
261 37 -262 0
34 262 263 0
34 262 263 0
34 262 263 0
178 263 264 0
178 263 264 0
178 263 264 0
178 263 264 0
265 10 0
265 256 0
10 256 -265 0
266 42 0
266 265 0
42 265 266 0
267 85 0
267 266 0
85 266 267 0
268 264 0
268 267 0
264 267 268 0
260 268 -269 0
260 268 -269 0
-260 268 269 0
260 -268 269 0
270 37 0
270 -216 0
37 216 -270 0
-271 19 0
-271 11 0
19 11 271 0
272 184 0
272 271 0
-184 -271 -272 0
272 266 -273 0
-272 -266 -273 0
272 -266 273 0
-272 266 273 0
274 -270 0
274 -273 0
270 273 -274 0
275 274 0
275 62 0
274 -62 -275 0
152 93 -276 0
152 -93 276 0
-152 93 276 0
-277 -275 0
-277 -276 0
275 276 277 0
40 -226 -278 0
-40 226 -278 0
40 226 278 0
-40 -226 -278 0
279 -15 0
279 180 0
15 -180 -279 0
-280 278 0
-280 -279 0
-278 279 280 0
-281 -266 0
-281 62 0
266 -62 281 0
280 281 -282 0
-280 -281 -282 0
280 -281 282 0
-280 281 282 0
-283 -277 0
-283 282 0
277 -282 283 0
284 269 0
-269 283 -284 0
-254 -284 -285 0
254 284 -285 0
-254 284 285 0
254 -284 285 0
286 -212 0
286 -285 0
-212 285 -286 0
287 -120 0
287 126 0
120 -126 -287 0
-52 287 -288 0
52 -287 -288 0
52 287 288 0
52 287 288 0
-289 -41 0
-289 -202 0
41 202 289 0
-290 289 0
-290 -20 0
-289 20 290 0
291 288 0
291 -290 0
-288 290 -291 0
292 -61 0
292 152 0
61 -152 -292 0
292 272 -293 0
-292 -272 -293 0
292 -272 293 0
-292 272 293 0
-294 -98 0
-294 67 0
-98 -67 294 0
293 294 -295 0
-293 -294 -295 0
293 -294 295 0
-293 294 295 0
296 58 0
296 38 0
58 38 296 0
297 296 0
297 35 0
296 -35 -297 0
-298 -2 0
-298 297 0
2 -297 298 0
-299 295 0
-299 298 0
-295 -298 299 0
300 11 0
300 -106 0
-11 106 -300 0
-273 300 -301 0
273 -300 -301 0
273 300 301 0
-302 66 0
-302 -42 0
-66 42 302 0
303 -302 0
303 -153 0
302 153 -303 0
304 -301 0
304 -303 0
301 303 -304 0
-299 304 -305 0
299 -304 -305 0
-299 -304 305 0
299 304 305 0
-306 291 0
-306 305 0
-291 -305 306 0
-307 17 0
-307 60 0
-17 -60 307 0
308 -307 0
308 109 0
-307 -109 -308 0
37 -95 -309 0
-37 95 -309 0
37 95 309 0
-37 -95 -309 0
310 308 0
310 309 0
-308 -309 -310 0
306 -310 -311 0
-306 310 -311 0
306 310 311 0
-306 -310 311 0
249 -54 -312 0
-249 54 -312 0
249 54 312 0
-249 -54 -312 0
-307 -64 -313 0
307 64 -313 0
-307 64 313 0
-307 -64 313 0
-314 109 0
-314 124 0
315 313 0
315 -314 0
-313 314 -315 0
-316 312 0
-316 -315 0
-312 315 316 0
317 -103 0
317 -68 0
103 68 -317 0
-318 99 0
-318 95 0
99 95 318 0
319 317 0
319 -318 0
-317 -318 -319 0
320 -316 0
320 319 0
-316 -319 -320 0
-321 -63 0
-321 74 0
63 -74 321 0
-272 321 -322 0
272 -321 -322 0
-272 -321 322 0
272 321 322 0
-323 -320 0
-323 -322 0
320 322 323 0
-324 -13 0
-324 147 0
13 -147 324 0
325 -323 0
325 -324 0
-323 324 -325 0
326 -67 0
326 258 0
67 -258 -326 0
328 -327 0
328 -128 0
327 128 328 0
329 -326 0
329 328 0
326 -328 -329 0
330 329 0
-329 155 -330 0
-126 -94 -331 0
126 94 -331 0
-126 94 331 0
126 -94 331 0
-332 330 0
-332 -331 0
330 331 332 0
-333 154 0
-333 202 0
-154 -202 333 0
334 333 0
334 90 0
-333 -90 -334 0
335 334 0
335 16 0
334 16 335 0
336 -122 0
336 67 0
122 -67 -336 0
-337 336 0
-337 -70 0
-336 70 337 0
-338 337 0
-338 -216 0
-337 216 338 0
339 335 0
339 -338 0
-335 -338 -339 0
340 -332 0
332 339 -340 0
20 257 -341 0
-20 -257 -341 0
20 -257 341 0
-20 257 341 0
342 -340 0
342 -341 0
340 341 -342 0
325 -342 -343 0
-325 342 -343 0
325 342 343 0
-325 -342 -343 0
-344 -311 0
-344 343 0
311 -343 344 0
345 -63 0
345 -4 0
63 4 -345 0
346 13 0
346 102 0
-13 -102 -346 0
-347 -257 0
-347 346 0
257 -346 347 0
-348 -30 0
-348 -347 0
30 347 348 0
-349 -114 0
-349 9 0
114 -9 349 0
23 93 -350 0
-23 -93 -350 0
23 -93 350 0
-23 93 350 0
-350 111 -351 0
350 -111 -351 0
-350 -111 351 0
350 111 351 0
-349 -351 -352 0
349 351 -352 0
-349 351 352 0
349 -351 352 0
353 -352 0
-348 352 -353 0
-354 -345 0
-354 353 0
345 -353 354 0
355 -344 0
355 354 0
344 -354 -355 0
-356 -286 0
-356 355 0
286 -355 356 0
-357 -172 0
-357 -356 0
172 356 357 0
-358 84 0
-358 357 0
-84 -357 358 0
-145 -297 -359 0
145 297 -359 0
-145 297 359 0
145 -297 359 0
41 -273 -360 0
-41 273 -360 0
41 273 360 0
-41 -273 360 0
-361 -143 0
-361 74 0
143 -74 361 0
-362 -361 0
-362 18 0
-361 -18 362 0
363 -123 0
363 -362 0
123 362 -363 0
-364 360 0
-364 363 0
-360 -363 364 0
359 364 -365 0
-359 -364 -365 0
359 -364 365 0
-359 364 365 0
366 152 0
366 -43 0
-366 32 -367 0
366 -32 -367 0
366 32 367 0
366 32 367 0
368 -367 0
368 -218 0
-367 218 -368 0
369 37 0
369 -368 0
-37 368 -369 0
-66 152 -370 0
66 -152 -370 0
-66 -152 370 0
66 152 370 0
371 369 0
371 -370 0
369 370 371 0
372 91 0
372 366 0
91 -366 -372 0
-308 372 -373 0
308 -372 -373 0
-308 -372 -373 0
308 372 373 0
-374 34 0
-374 2 0
-34 -2 -374 0
-375 -100 0
-375 180 0
100 -180 375 0
376 93 0
376 -375 0
-93 -375 -376 0
-377 374 0
-377 376 0
-374 -376 377 0
-373 377 -378 0
373 -377 -378 0
-373 -377 378 0
-373 377 378 0
379 32 0
379 -48 0
-32 -48 -379 0
380 -378 0
378 379 -380 0
381 30 0
381 133 0
30 -133 -381 0
-93 -381 -382 0
93 381 -382 0
-93 381 382 0
93 -381 382 0
383 -296 0
383 382 0
296 -382 -383 0
384 270 0
384 -58 0
-270 58 -384 0
20 -384 -385 0
-20 384 -385 0
20 384 385 0
-20 -384 -385 0
-386 -130 0
-386 385 0
130 -385 386 0
-387 386 0
-387 -107 0
-386 107 387 0
388 -383 0
388 387 0
383 -387 -388 0
389 203 0
389 -362 0
-203 -362 -389 0
388 -389 -390 0
-388 389 -390 0
388 389 390 0
-388 -389 -390 0
-380 -390 -391 0
380 390 -391 0
-380 -390 391 0
380 -390 391 0
-371 -391 -392 0
371 391 -392 0
371 -391 392 0
-393 -365 0
-393 392 0
365 -392 393 0
394 87 0
394 -255 0
-87 255 -394 0
395 -385 0
395 307 0
385 -307 -395 0
-396 -361 0
-396 -395 0
361 395 396 0
-394 -396 -397 0
394 396 -397 0
394 396 397 0
394 -396 397 0
35 -125 -398 0
-35 125 -398 0
35 125 398 0
35 125 398 0
-399 -398 0
-399 -53 0
398 53 399 0
-400 -54 0
-400 191 0
54 -191 400 0
-399 -400 -401 0
399 400 -401 0
-399 400 401 0
399 -400 401 0
-402 -11 0
-402 120 0
11 -120 402 0
403 401 0
403 402 0
-401 -402 -403 0
62 -318 -404 0
-62 318 -404 0
62 318 404 0
-62 -318 404 0
405 -26 0
37 26 -405 0
406 -404 0
406 -405 0
404 405 -406 0
403 406 -407 0
-403 -406 -407 0
403 -406 407 0
-403 406 407 0
397 -407 -408 0
-397 407 -408 0
-397 407 408 0
-397 -407 408 0
376 238 -409 0
-376 -238 -409 0
376 -238 409 0
-376 238 409 0
-410 -408 0
-410 409 0
408 -409 410 0
-73 32 -411 0
73 -32 -411 0
-73 -32 411 0
73 32 411 0
413 77 0
413 412 0
-77 -412 -413 0
414 -200 0
414 -15 0
200 15 -414 0
168 -414 -415 0
-168 414 -415 0
168 414 415 0
-168 -414 415 0
-416 -413 0
-416 415 0
413 -415 416 0
-417 -143 0
-417 100 0
143 -100 417 0
-418 417 0
-418 -330 0
-419 153 0
-419 -178 0
-153 -178 419 0
-420 -419 0
-420 -127 0
419 127 420 0
420 -72 -421 0
-420 72 -421 0
-420 72 421 0
-420 -72 421 0
418 421 -422 0
-418 -421 -422 0
418 -421 422 0
-418 421 422 0
423 -416 0
423 422 0
416 -422 -423 0
-424 411 0
-424 -423 0
-411 423 424 0
-425 410 0
-425 424 0
-410 -424 425 0
-426 -93 0
-426 -337 0
93 337 426 0
427 426 0
427 11 0
-426 -11 -427 0
428 -168 0
428 -15 0
168 15 -428 0
72 -428 -429 0
-72 428 -429 0
72 428 429 0
-72 -428 429 0
430 427 0
430 429 0
-427 -429 -430 0
-431 244 0
-431 17 0
431 61 -432 0
-431 -61 -432 0
431 61 432 0
-431 61 432 0
1 -432 -433 0
-1 432 -433 0
1 432 433 0
-1 -432 433 0
-434 -271 0
-434 -153 0
271 153 434 0
435 -433 0
435 -434 0
433 434 435 0
-436 -318 0
-436 -205 0
318 205 436 0
-437 436 0
-437 384 0
-436 -384 437 0
438 194 0
438 134 0
194 134 438 0
-439 438 0
-439 -54 0
-438 54 439 0
437 439 -440 0
-437 -439 -440 0
437 -439 440 0
-437 439 440 0
440 262 -441 0
-440 -262 -441 0
-440 -262 441 0
-440 262 441 0
442 -78 0
442 122 0
78 -122 -442 0
443 242 0
443 442 0
242 442 443 0
-444 -443 0
441 443 444 0
-435 -444 -445 0
435 444 -445 0
-435 -444 445 0
435 -444 445 0
-446 22 0
-446 -421 0
22 421 446 0
-447 -445 0
-447 -446 0
-445 446 447 0
-448 204 0
-448 -70 0
-204 70 448 0
449 -448 0
449 -20 0
448 20 -449 0
-450 -347 0
-450 200 0
347 200 450 0
-451 -244 0
-451 -216 0
244 216 451 0
452 -451 0
452 114 0
451 114 452 0
453 450 0
453 452 0
-450 -452 -453 0
454 449 0
454 453 0
449 -453 -454 0
447 454 -455 0
-447 -454 -455 0
-447 -454 455 0
-447 454 455 0
-456 -430 0
-456 455 0
-457 -425 0
-457 456 0
425 -456 457 0
458 -393 0
458 -457 0
393 457 458 0
-459 -164 0
-459 292 0
164 -292 459 0
54 141 -460 0
-54 -141 -460 0
54 -141 460 0
-54 141 460 0
-461 459 0
-461 -460 0
-459 460 461 0
462 173 0
462 -266 0
-173 266 -462 0
-463 -21 0
-463 239 0
21 239 463 0
464 462 0
464 463 0
-462 -463 -464 0
-465 154 0
-465 -307 0
-154 307 465 0
466 -126 0
466 -52 0
126 52 -466 0
-467 -465 0
-467 -466 0
465 466 467 0
-468 -464 0
-468 467 0
464 -467 468 0
-313 -126 -469 0
313 126 -469 0
-313 126 469 0
-469 -67 -470 0
469 67 -470 0
-469 67 470 0
469 67 470 0
-471 67 0
-471 -93 0
-67 93 471 0
472 471 0
472 -230 0
-471 230 -472 0
-473 -334 0
-473 -472 0
334 472 473 0
474 -470 0
474 473 0
470 -473 -474 0
-475 -468 0
-475 474 0
468 474 475 0
73 44 -476 0
-73 -44 -476 0
73 44 476 0
-73 44 476 0
477 -41 0
477 -476 0
41 476 -477 0
-200 477 -478 0
200 477 478 0
200 477 478 0
479 -244 0
479 -139 0
244 139 -479 0
-480 367 0
-480 -479 0
-367 479 480 0
481 226 0
481 480 0
-226 -480 -481 0
482 -481 0
482 -51 0
481 51 -482 0
478 -482 -483 0
-478 482 -483 0
478 482 483 0
-478 -482 483 0
484 134 0
484 146 0
134 -146 -484 0
-485 194 0
-485 60 0
-194 -60 -485 0
-486 -484 0
-486 -485 0
484 485 486 0
266 -33 -487 0
-266 33 -487 0
266 33 487 0
-266 -33 -487 0
42 205 -488 0
-42 -205 -488 0
42 -205 488 0
-42 205 488 0
489 487 0
489 -488 0
-487 488 -489 0
448 -489 -490 0
-448 489 -490 0
448 489 490 0
-448 -489 490 0
486 490 -491 0
486 -490 491 0
-486 490 491 0
492 153 0
492 -471 0
-153 -471 -492 0
492 62 -493 0
-492 -62 -493 0
492 -62 493 0
-492 62 493 0
494 493 0
494 313 0
-493 -313 -494 0
-495 491 0
-495 494 0
-491 -494 495 0
483 -495 -496 0
-483 495 -496 0
-483 495 496 0
-483 -495 496 0
-497 -475 0
-497 -496 0
-475 496 497 0
-461 -497 -498 0
461 497 -498 0
-461 497 498 0
461 -497 498 0
186 205 -499 0
-186 -205 -499 0
186 -205 499 0
-186 205 499 0
313 499 -500 0
-313 -499 -500 0
313 -499 500 0
-313 499 500 0
501 498 0
501 -500 0
-498 500 -501 0
-38 -20 -502 0
38 20 -502 0
-38 20 502 0
38 -20 502 0
-502 -382 -503 0
502 382 -503 0
-502 382 503 0
502 -382 503 0
504 -245 0
504 37 0
245 -37 -504 0
-503 -504 -505 0
503 504 -505 0
-503 504 505 0
-503 -504 505 0
-506 501 0
-506 -505 0
501 505 506 0
121 -39 -507 0
-121 39 -507 0
121 39 507 0
-508 -41 0
-508 -21 0
41 21 508 0
-29 -420 -509 0
29 420 -509 0
-29 -420 509 0
29 -420 509 0
156 -509 -510 0
-156 509 -510 0
156 509 510 0
-156 -509 510 0
511 -508 0
511 -510 0
508 510 511 0
-507 511 -512 0
507 -511 -512 0
-507 -511 512 0
507 511 512 0
-513 -376 0
-513 124 0
376 -124 513 0
514 93 0
514 513 0
-93 -513 -514 0
-515 512 0
-515 514 0
-512 -514 515 0
516 -506 0
516 -515 0
506 515 516 0
-517 -458 0
-517 -516 0
458 516 517 0
518 -374 0
518 386 0
374 -386 -518 0
519 518 0
519 -367 0
518 367 519 0
-520 11 0
-11 -249 -520 0
34 -520 -521 0
-34 520 -521 0
34 520 521 0
-34 -520 521 0
-522 519 0
-522 521 0
-519 -521 522 0
48 42 -523 0
-48 -42 -523 0
-48 -42 523 0
-48 42 523 0
-216 -523 -524 0
216 523 -524 0
216 523 524 0
216 -523 524 0
-525 522 0
-525 524 0
-522 -524 525 0
526 233 0
526 -122 0
-233 122 -526 0
527 302 0
527 90 0
-302 -90 -527 0
526 -527 -528 0
-526 527 -528 0
526 527 528 0
-156 327 -529 0
156 -327 -529 0
-156 -327 529 0
156 327 529 0
530 -1 0
530 75 0
1 -75 -530 0
-531 -271 0
-531 -530 0
271 530 531 0
-532 17 0
-532 18 0
-17 -18 532 0
-532 -513 -533 0
532 513 -533 0
-532 513 533 0
532 -513 533 0
531 -533 -534 0
-531 533 -534 0
-531 533 534 0
-531 -533 534 0
535 529 0
535 534 0
-529 -534 -535 0
-536 -36 0
-536 438 0
36 -438 536 0
-30 328 -537 0
30 -328 -537 0
30 328 537 0
30 328 537 0
-538 536 0
-538 537 0
-536 -537 538 0
-539 157 0
-539 -197 0
-157 197 539 0
-540 -538 0
-540 -539 0
-538 539 540 0
487 -426 -541 0
-487 426 -541 0
-487 426 541 0
-487 -426 541 0
542 -105 0
-541 105 -542 0
-543 -259 0
-543 376 0
259 -376 543 0
-544 542 0
-544 543 0
-542 -543 544 0
545 540 0
545 -544 0
-540 544 -545 0
-546 -535 0
-546 545 0
535 -545 546 0
547 -528 0
547 -546 0
528 546 547 0
-16 -29 -548 0
16 29 -548 0
-16 29 548 0
16 -29 548 0
-548 313 -549 0
548 -313 -549 0
-548 -313 549 0
-548 313 549 0
48 100 -550 0
-48 -100 -550 0
48 100 550 0
-48 100 550 0
551 66 0
551 550 0
-66 -550 -551 0
552 549 0
552 -551 0
-549 551 -552 0
553 547 0
553 552 0
547 552 553 0
554 -525 0
554 -553 0
-555 517 0
-555 554 0
-517 -554 555 0
-536 226 -556 0
536 -226 -556 0
-536 -226 556 0
536 226 556 0
-34 -7 -557 0
34 7 -557 0
-34 7 557 0
34 -7 557 0
558 -233 0
558 -440 0
233 440 -558 0
-559 376 0
-559 168 0
-376 -168 559 0
-560 -558 0
-560 -559 0
558 559 560 0
-561 557 0
-561 -560 0
-557 560 561 0
556 -561 -562 0
-556 561 -562 0
-556 561 562 0
-556 -561 562 0
-537 -114 -563 0
537 114 -563 0
-537 114 563 0
-537 -114 563 0
-562 -563 -564 0
562 563 -564 0
-562 563 564 0
562 -563 564 0
555 -564 -565 0
-555 564 -565 0
-555 564 565 0
-555 -564 565 0
566 -358 0
358 565 566 0
225 -183 182 -221 376 -163 0
-50 -96 140 -102 534 -354 258 262 438 0
516 -43 -564 -173 -354 0
-99 416 -331 0
-375 -500 49 109 0
-400 388 413 245 510 344 208 51 9 -143 0
-377 74 311 285 -319 222 -165 0
-64 -75 68 -229 402 17 243 -219 103 0
-526 -291 132 0
-106 288 -126 14 0
-548 370 0
-314 19 -325 0
-26 525 -94 52 -517 0
329 120 328 -364 150 202 -81 517 0
-73 559 -273 401 0
545 409 -281 544 43 547 -489 287 532 0
-255 -536 -170 493 333 0
517 122 417 -137 -479 215 507 -52 0
-417 67 370 250 393 -551 25 289 -87 -375 0
414 -9 -115 -105 315 550 -490 -279 219 0
376 -507 544 -235 -301 -435 0
12 185 307 539 -119 321 0
-295 31 383 -183 -421 0
-332 -3 -167 300 -436 0
80 36 -177 -39 403 -451 252 -171 0
-194 -150 -77 270 -162 399 0
375 34 -498 -555 119 -493 440 -249 0
255 30 -111 -431 203 -346 -36 -168 0
-199 -4 -491 337 -565 -73 373 0
-353 32 -168 -533 414 204 91 0
-60 -22 -171 256 0
533 115 -166 454 -335 135 -461 406 -198 510 0
26 466 0
345 355 187 211 -125 0
335 -291 -235 -296 -171 -248 -180 -407 561 331 0
-69 -46 83 0
-332 -152 -237 0
-403 207 -184 -386 -42 -218 -193 -210 -194 230 0
-495 -8 171 0
129 -31 -272 -216 65 204 459 7 -167 0
181 319 -462 0
68 331 -484 0
413 -263 -340 -444 166 0
-246 245 -500 225 3 300 0
525 -519 18 -276 64 330 356 109 0
235 273 -255 18 -510 0
-202 -3 -355 -83 268 117 -463 0
-261 265 -134 105 -337 0
-222 55 0
324 -450 1 -463 -119 112 -64 0
213 -555 0
47 -333 0
-388 -227 435 84 -140 50 268 0
413 -541 -483 -403 -385 -145 126 208 -440 -72 0
366 24 -398 0
-46 -521 69 483 -36 -469 391 -192 -251 551 0
-269 278 392 -459 -311 279 114 417 0
288 -236 77 -314 515 -438 0
468 559 148 18 0
-354 460 0
265 354 365 -83 532 261 -218 0
133 -546 80 -249 -22 0
-85 41 291 -84 -211 -378 498 -104 -483 -449 0
-516 -293 262 -58 20 337 234 469 487 0
80 15 271 546 -416 -265 0
-361 88 -205 86 -474 -553 -552 390 0
173 307 33 -339 -149 -190 -180 0
-333 511 -11 0
426 246 -75 -206 436 420 180 0
325 -167 0
162 -208 240 -228 16 39 -405 -216 -247 75 0
212 138 -401 533 0
-207 -556 0
-509 -297 312 345 -562 -443 0
-170 -496 -241 -234 -136 -101 257 -516 0
15 -539 393 8 524 0
26 -21 -19 32 -49 66 55 -67 11 12 0
276 -271 -189 362 -469 0
276 -271 -189 362 -469 0
-413 395 -305 -192 526 -235 345 93 0
-361 159 204 0
522 260 -94 560 546 -88 -166 397 0
-88 520 -507 0
-73 -161 -46 504 -461 0
196 -149 -94 87 -150 -244 -158 503 343 64 0
425 158 22 238 0
177 266 -9 -445 -158 275 478 -416 133 247 0
63 494 -331 14 481 -517 278 -551 0
-46 -61 -439 84 -203 -565 449 185 53 -512 0
311 -141 -328 119 -218 381 -49 -31 173 0
524 -405 6 441 558 -454 0
-463 -444 146 196 264 -140 0
565 -506 47 483 466 328 352 -258 0
-438 -559 -531 -425 -506 262 0
199 -202 330 441 0
145 -87 -47 -511 -26 0
24 -140 -553 51 0
-443 148 -102 106 313 476 55 -121 511 0
-493 319 3 0
-90 -387 456 -250 428 -425 161 15 487 0
-105 -347 382 401 146 97 -64 298 0
-111 217 -505 511 238 -83 -445 485 -47 0
380 346 -358 500 -356 499 -352 0
413 239 -294 181 125 -253 0
482 -206 346 -182 0
248 289 286 369 0
-384 -554 -497 -133 197 258 428 -240 -422 266 0
554 198 218 -34 392 0
-389 228 -303 380 -245 216 -342 -347 0
448 -307 -277 432 466 289 -136 -387 14 -13 0
-460 448 -533 348 -356 -483 199 -516 0
249 238 159 -10 333 446 205 -515 -470 0
-365 233 -255 400 -429 128 290 0
-228 -481 173 52 -550 -302 -112 0
512 58 357 -326 0
-545 241 72 -106 0
18 -448 -541 -163 -69 -47 -469 -118 0
-69 -216 38 458 -36 511 -451 -529 0
350 179 174 0
-65 -248 -359 -413 0
395 217 -487 -108 306 392 -541 441 166 -545 0
206 -434 0
-276 517 173 -521 11 -562 -449 -424 42 75 0
-229 295 -440 325 -459 -268 -354 -107 -1 0
387 -99 -433 340 63 115 0
278 -190 324 441 -31 -350 199 -129 0
-212 245 -356 -61 281 564 -324 0
371 6 463 117 80 0
160 406 149 -307 0
169 537 44 0
467 -561 0
225 476 -252 537 0
-362 418 0
140 7 478 324 299 392 458 -493 413 0
321 18 0
394 -495 -21 -75 330 548 -197 132 113 0
525 -559 -149 -518 4 462 -408 49 81 -77 0
406 25 -245 -348 398 0
-32 66 -89 337 451 -52 -393 -141 0
-217 4 -339 325 -362 -444 531 446 -314 0
-243 10 -277 -412 0
-420 -493 325 -450 99 -106 -132 549 482 0
-65 194 382 0
-557 -376 0
237 -357 0
101 257 252 133 -117 -337 0
-233 181 -187 -182 0
111 468 -109 117 418 -248 -128 236 454 -138 0
-19 -120 -60 -458 -375 0
-83 71 402 -236 -189 -33 -273 0
58 -375 -473 -203 -332 -217 401 278 -230 -187 0
-341 302 -321 339 296 -371 403 0
217 -234 0
184 480 413 -197 248 275 268 -179 400 -550 0
-460 548 306 360 -379 144 279 403 0
-221 -170 -472 -535 0
101 539 45 0
549 287 -296 34 0
59 393 -46 165 -333 96 302 -324 -315 0
443 -82 97 254 0
-115 153 -452 114 -259 -67 -298 -499 0
-57 516 231 19 32 -101 -318 -71 0
136 160 413 163 -139 -394 38 -301 310 0
-259 -416 -196 -441 0
354 -458 -504 -92 29 442 0
-474 -46 -26 -553 397 -271 0
-423 150 -310 452 168 226 -255 323 -331 -211 0
-543 -326 -449 -463 -158 -246 288 -394 0
-343 -381 166 0
-393 219 0
497 129 157 0
401 440 -314 -201 -382 1 -159 47 -181 0
-18 566 -525 -244 288 120 -126 -76 0
381 88 233 -535 296 -287 -15 -387 0
-482 -164 -451 -411 -424 -473 0
305 -212 -413 0
-192 -142 -283 -6 -227 -285 0
297 448 96 -377 534 -26 235 -124 -392 -29 0
268 123 -541 0
427 519 -75 40 68 457 140 -127 -79 0
102 370 -234 -225 3 -142 67 84 0
63 144 -195 0
-516 -83 408 23 -330 156 245 76 -514 0
-251 -68 185 47 -107 -319 -330 -356 -14 0
-289 -536 566 -318 -433 -473 0
156 24 -25 277 0
-319 54 -357 -38 260 440 0
-391 73 91 511 0
-132 506 -242 -215 -270 -140 -251 245 -308 -353 0
276 81 -480 0
544 -145 -5 465 -34 67 141 -307 194 0
434 -336 143 -21 285 0
552 -467 -116 -278 -22 56 -526 0
-157 -406 -530 509 533 484 -405 -414 418 -227 0
145 -152 188 204 -62 475 142 0
-453 427 95 469 0
-281 -422 -157 0
-106 -9 403 -167 89 0
-429 -197 -147 -274 0
513 -274 450 324 -444 286 0
33 48 -181 -201 -279 -377 0
522 388 0
344 257 292 115 94 364 -339 0
-228 382 -96 -295 -172 21 44 146 244 -136 0
222 -325 -529 11 37 242 0
-283 -363 208 -215 -21 -242 216 -416 -543 0
-473 150 0
-101 11 0
-220 251 338 363 0
-55 -68 -493 565 556 0
402 -371 -469 463 230 73 -198 0
346 30 471 -424 -105 157 -565 -564 -450 0
489 466 -172 362 -127 -429 224 0
-236 449 292 187 527 83 -336 -240 -358 0
152 -184 400 -108 -126 388 -528 -219 0
531 -467 46 0
239 -540 0
-354 -113 -290 -414 261 -338 -423 0
-125 414 479 285 -440 427 21 0
291 -500 0
275 111 -535 0
494 204 -22 -46 -190 -448 148 0
415 -89 -273 -76 0
-283 -429 521 442 196 412 -448 -452 -36 0
328 460 22 -478 -412 233 325 473 -7 139 0
-345 551 -268 -445 52 0
-70 443 451 -285 -489 338 0
-254 -256 21 -71 297 183 -553 233 -66 -411 0
-413 70 207 65 -534 559 0
279 -484 337 -479 0
-383 -473 2 -34 0
472 -168 -277 -205 411 -467 86 -563 0
-541 254 0
-545 413 23 -81 -539 435 0
566 0
